Ni - (111) + CO on-top                  
   3.53000000000000     
     0.7071067800000000    0.0000000000000000    0.0000000000000000
    -0.3535533900000000    0.6123724000000000    0.0000000000000000
     0.0000000000000000    0.0000000000000000    5.1961523999999999
   Ni   C    O 
   5   1   1
Selective dynamics
Direct
  0.0000000000000000  0.0000000000000000  0.0000000000000000   F   F   F
  0.3333333300000021  0.6666666699999979  0.1111111100000031   F   F   F
  0.6666666699999979  0.3333333300000021  0.2222222199999990   F   F   F
  0.0000000000000000  0.0000000000000000  0.3330272443083032   T   T   T
  0.3333333300000021  0.6666666699999979  0.4445186532215274   T   T   T
  0.3333333300000021  0.6666666699999979  0.5402037366060171   T   T   T
  0.3333333300000021  0.6666666699999979  0.6031561111595829   T   T   T
 
  0.00000000E+00  0.00000000E+00  0.00000000E+00
  0.00000000E+00  0.00000000E+00  0.00000000E+00
  0.00000000E+00  0.00000000E+00  0.00000000E+00
  0.00000000E+00  0.00000000E+00  0.00000000E+00
  0.00000000E+00  0.00000000E+00  0.00000000E+00
  0.00000000E+00  0.00000000E+00  0.00000000E+00
  0.00000000E+00  0.00000000E+00  0.00000000E+00
